3 32 1 10
18 13 16 13 11 4 11 17 19 8 12 2 2 5 3 4 16 17 11 12 12 9 9 7 1 7 17 2 8 1 10 16 
3.53 5.92 1.07 3.28 7.71 0.09 7.68 5.7 0.08 7.4 0.44 7.29 3.09 0.93 7.85 2.62 3.85 2.1 7.38 5.43 2.73 3.99 3.96 5.15 6.63 7.29 5.27 4.35 2.45 1.67 3.65 5.64 
4 4 4 4 4 4 4 4 4 4 4 4 4 4 4 4 4 4 4 4 4 4 4 4 4 4 4 4 4 4 4 4 
4.99 3.1 3.21 5.68 1.59 1.45 1.8 3.64 5.92 1.6 1.68 4.4 1.48 7.63 2.3 1.3 7.91 2.52 7.93 2.06 3.84 3.36 1.74 4.47 3.55 4.83 7.06 5.47 4.64 2.69 7.2 5.13 
1 1 1 1 1 1 1 1 1 1 1 1 1 1 1 1 1 1 1 1 1 1 1 1 1 1 1 1 1 1 1 1 
1 1 1 1 1 1 1 1 1 1 1 1 1 1 1 1 1 1 1 1 1 1 1 1 1 1 1 1 1 1 1 1 
1 1 1 1 1 1 1 1 1 1 1 1 1 1 1 1 1 1 1 1 1 1 1 1 1 1 1 1 1 1 1 1 
0.01 0.01 0.01 0.01 0.01 0.01 0.01 0.01 0.01 0.01 0.01 0.01 0.01 0.01 0.01 0.01 0.01 0.01 0.01 0.01 0.01 0.01 0.01 0.01 0.01 0.01 0.01 0.01 0.01 0.01 0.01 0.01 
0.02 0.02 0.02 0.02 0.02 0.02 0.02 0.02 0.02 0.02 0.02 0.02 0.02 0.02 0.02 0.02 0.02 0.02 0.02 0.02 0.02 0.02 0.02 0.02 0.02 0.02 0.02 0.02 0.02 0.02 0.02 0.02 
1 1 1 1 1 1 1 1 1 1 1 1 1 1 1 1 1 1 1 1 1 1 1 1 1 1 1 1 1 1 1 1 
